param set_len = 20;
param target := 2931850;
set values := 465426, 332418, 161131, 31574, 434732, 130980, 475052, 515977, 264939, 167204, 480447, 378644, 30324, 197994, 402204, 131439, 159839, 88526, 385922, 11048, ;
